100 81303

 23 648
47 4
525 667
729 684
834 936
706 870
144 47
585 94
668 940
589 560
419 752
681 859
973 213
799 436
85 852
416 508
694 836
482 651
456 205
827 381
297 73
112 516
962 76
230 841
96 77
950 816
680 768
378 410
156 614
421 106
105 845
705 551
330 476
439 826
132 275
867 88
382 723
138 881
943 77
843 77
270 442
550 540
396 245
557 578
913 778
464 382
675 982
450 717
331 570
253 713
681 737
963 142
285 893
274 368
20 84
239 143
270 352
418 545
945 913
310 152
31 158
826 446
104 653
682 958
186 763
128 303
210 624
414 656
281 450
959 721
253 224
19 43
712 264
732 756
136 3
223 637
3 268
963 596
236 16
854 334
465 464
228 59
913 177
654 63
499 958
521 561
702 307
862 246
917 289
972 798
677 955
992 332
139 527
276 850
291 255
53 604
687 510
110 791
715 718
948 606
